p tw 52 57
1 2
2 13
3 4
4 5
5 6
6 47
7 8
8 9
9 10
10 11
11 12
11 15
12 14
13 24
14 15
14 20
15 16
16 17
17 18
18 19
19 20
20 21
21 22
22 23
23 25
24 35
24 3
25 26
26 27
27 28
28 29
29 30
30 31
31 32
31 37
32 33
33 34
34 36
35 46
36 37
36 42
37 38
38 39
39 40
40 41
41 42
42 43
43 44
44 45
45 47
46 49
47 48
49 50
50 51
51 52
52 3
52 7
